c BabySAT DPLL SAT Solver
c
c Copyright (c) 2026, Benjamin Deutsch
c Version 0.0.4 3f70528ad16f8c5ae9a5b9cc5ac28edf924451f6
c Compiled with 'g++ -Wall -std=c++11 -O3 -DNDEBUG'
c
c reading from 'cnfs/full4.cnf'
c parsed header 'p cnf 4 16'
c
c             decisions             variables
c   seconds              conflicts            remaining
c
c *    0.00           0           0         4 100%
c d    0.00           1           0         4 100%
c d    0.00           2           0         4 100%
c d    0.00           4           2         4 100%
c 0    0.00           7           8         0   0%
c
s UNSATISFIABLE
c
c conflicts:                     8      2369.67 per second
c decisions:                     7      2073.46 per second
c propagations:                  0         0.00 million per second
c
c process-time:               0.00 seconds
c
c exit code 20
